70
1 0 1
2 0 1
2 1 2
3 0 2
3 1 5
3 2 6
4 0 6
4 1 6
4 2 2
4 3 3
5 0 1
5 1 2
5 2 3
5 3 6
5 4 6
6 0 2
6 1 6
6 2 6
6 3 5
6 4 6
6 5 2
7 0 6
7 1 5
7 2 1
7 3 3
7 4 6
7 5 5
7 6 6
8 0 3
8 1 1
8 2 6
8 3 6
8 4 3
8 5 4
8 6 1
8 7 3
9 0 5
9 1 3
9 2 3
9 3 6
9 4 2
9 5 5
9 6 3
9 7 3
9 8 1
10 0 2
10 1 4
10 2 1
10 3 4
10 4 2
10 5 5
10 6 2
10 7 3
10 8 2
10 9 5
11 0 3
11 1 1
11 2 4
11 3 1
11 4 4
11 5 5
11 6 6
11 7 2
11 8 4
11 9 4
11 10 5
12 0 2
12 1 1
12 2 2
12 3 3
12 4 3
12 5 1
12 6 3
12 7 3
12 8 2
12 9 4
12 10 2
12 11 4
13 0 2
13 1 1
13 2 3
13 3 3
13 4 4
13 5 1
13 6 1
13 7 5
13 8 1
13 9 6
13 10 5
13 11 1
13 12 3
14 0 2
14 1 4
14 2 5
14 3 3
14 4 6
14 5 1
14 6 4
14 7 3
14 8 2
14 9 5
14 10 4
14 11 5
14 12 1
14 13 4
15 0 3
15 1 4
15 2 4
15 3 1
15 4 6
15 5 5
15 6 3
15 7 5
15 8 5
15 9 5
15 10 5
15 11 6
15 12 5
15 13 1
15 14 1
16 0 6
16 1 6
16 2 6
16 3 3
16 4 2
16 5 1
16 6 2
16 7 4
16 8 5
16 9 3
16 10 2
16 11 2
16 12 1
16 13 6
16 14 1
16 15 4
17 0 1
17 1 6
17 2 4
17 3 3
17 4 2
17 5 4
17 6 4
17 7 3
17 8 4
17 9 4
17 10 4
17 11 1
17 12 1
17 13 3
17 14 5
17 15 2
17 16 6
18 0 3
18 1 5
18 2 6
18 3 6
18 4 6
18 5 3
18 6 6
18 7 5
18 8 1
18 9 4
18 10 4
18 11 1
18 12 5
18 13 1
18 14 3
18 15 6
18 16 4
18 17 2
19 0 5
19 1 5
19 2 1
19 3 3
19 4 4
19 5 1
19 6 3
19 7 5
19 8 2
19 9 2
19 10 1
19 11 5
19 12 5
19 13 3
19 14 2
19 15 5
19 16 3
19 17 6
19 18 5
20 0 2
20 1 4
20 2 3
20 3 6
20 4 2
20 5 3
20 6 2
20 7 6
20 8 2
20 9 2
20 10 3
20 11 2
20 12 4
20 13 2
20 14 6
20 15 3
20 16 6
20 17 3
20 18 4
20 19 2
21 0 4
21 1 5
21 2 2
21 3 5
21 4 5
21 5 6
21 6 5
21 7 2
21 8 4
21 9 5
21 10 3
21 11 1
21 12 2
21 13 1
21 14 4
21 15 2
21 16 5
21 17 5
21 18 3
21 19 6
21 20 5
22 0 5
22 1 1
22 2 6
22 3 4
22 4 3
22 5 6
22 6 4
22 7 6
22 8 3
22 9 4
22 10 3
22 11 3
22 12 2
22 13 5
22 14 3
22 15 6
22 16 2
22 17 2
22 18 6
22 19 4
22 20 6
22 21 6
23 0 4
23 1 1
23 2 6
23 3 4
23 4 2
23 5 3
23 6 2
23 7 4
23 8 5
23 9 2
23 10 1
23 11 1
23 12 1
23 13 5
23 14 4
23 15 6
23 16 2
23 17 6
23 18 6
23 19 3
23 20 3
23 21 1
23 22 5
24 0 1
24 1 4
24 2 5
24 3 4
24 4 4
24 5 5
24 6 1
24 7 5
24 8 5
24 9 3
24 10 3
24 11 5
24 12 6
24 13 1
24 14 3
24 15 5
24 16 2
24 17 6
24 18 1
24 19 5
24 20 4
24 21 6
24 22 2
24 23 2
25 0 3
25 1 1
25 2 3
25 3 2
25 4 3
25 5 3
25 6 1
25 7 6
25 8 1
25 9 5
25 10 1
25 11 1
25 12 4
25 13 2
25 14 4
25 15 5
25 16 1
25 17 3
25 18 5
25 19 6
25 20 6
25 21 6
25 22 6
25 23 5
25 24 5
26 0 1
26 1 6
26 2 6
26 3 4
26 4 6
26 5 5
26 6 6
26 7 6
26 8 4
26 9 4
26 10 6
26 11 5
26 12 3
26 13 4
26 14 5
26 15 4
26 16 4
26 17 1
26 18 1
26 19 2
26 20 3
26 21 4
26 22 3
26 23 5
26 24 2
26 25 3
27 0 1
27 1 5
27 2 1
27 3 2
27 4 2
27 5 3
27 6 3
27 7 5
27 8 6
27 9 3
27 10 1
27 11 3
27 12 2
27 13 3
27 14 1
27 15 4
27 16 5
27 17 2
27 18 2
27 19 5
27 20 6
27 21 1
27 22 5
27 23 6
27 24 2
27 25 6
27 26 3
28 0 2
28 1 3
28 2 5
28 3 3
28 4 6
28 5 2
28 6 1
28 7 1
28 8 4
28 9 5
28 10 3
28 11 5
28 12 6
28 13 2
28 14 6
28 15 6
28 16 5
28 17 2
28 18 1
28 19 3
28 20 2
28 21 3
28 22 1
28 23 4
28 24 5
28 25 5
28 26 2
28 27 3
29 0 2
29 1 3
29 2 5
29 3 4
29 4 1
29 5 4
29 6 1
29 7 3
29 8 5
29 9 6
29 10 2
29 11 4
29 12 5
29 13 4
29 14 6
29 15 6
29 16 5
29 17 5
29 18 2
29 19 2
29 20 5
29 21 2
29 22 6
29 23 1
29 24 5
29 25 2
29 26 3
29 27 1
29 28 2
30 0 4
30 1 4
30 2 6
30 3 5
30 4 2
30 5 4
30 6 4
30 7 4
30 8 4
30 9 2
30 10 6
30 11 5
30 12 6
30 13 1
30 14 6
30 15 3
30 16 1
30 17 4
30 18 3
30 19 4
30 20 2
30 21 5
30 22 1
30 23 1
30 24 3
30 25 6
30 26 3
30 27 2
30 28 6
30 29 5
31 0 3
31 1 4
31 2 6
31 3 4
31 4 1
31 5 2
31 6 2
31 7 4
31 8 4
31 9 3
31 10 4
31 11 5
31 12 3
31 13 4
31 14 6
31 15 6
31 16 2
31 17 4
31 18 6
31 19 6
31 20 6
31 21 1
31 22 1
31 23 4
31 24 6
31 25 5
31 26 3
31 27 1
31 28 3
31 29 1
31 30 2
32 0 3
32 1 3
32 2 5
32 3 5
32 4 1
32 5 1
32 6 1
32 7 2
32 8 2
32 9 6
32 10 3
32 11 1
32 12 4
32 13 5
32 14 4
32 15 6
32 16 5
32 17 4
32 18 6
32 19 2
32 20 5
32 21 5
32 22 2
32 23 2
32 24 4
32 25 1
32 26 5
32 27 4
32 28 5
32 29 6
32 30 6
32 31 2
33 0 4
33 1 6
33 2 6
33 3 6
33 4 1
33 5 2
33 6 6
33 7 6
33 8 5
33 9 4
33 10 2
33 11 6
33 12 4
33 13 1
33 14 2
33 15 1
33 16 5
33 17 3
33 18 5
33 19 5
33 20 4
33 21 1
33 22 2
33 23 1
33 24 4
33 25 6
33 26 1
33 27 6
33 28 4
33 29 1
33 30 5
33 31 6
33 32 2
34 0 3
34 1 2
34 2 2
34 3 6
34 4 2
34 5 4
34 6 5
34 7 2
34 8 3
34 9 3
34 10 4
34 11 2
34 12 4
34 13 5
34 14 1
34 15 1
34 16 1
34 17 2
34 18 3
34 19 5
34 20 2
34 21 4
34 22 1
34 23 1
34 24 3
34 25 1
34 26 4
34 27 2
34 28 4
34 29 4
34 30 2
34 31 4
34 32 1
34 33 3
35 0 2
35 1 2
35 2 2
35 3 1
35 4 3
35 5 4
35 6 4
35 7 6
35 8 5
35 9 3
35 10 2
35 11 3
35 12 5
35 13 6
35 14 1
35 15 6
35 16 4
35 17 3
35 18 3
35 19 5
35 20 3
35 21 5
35 22 6
35 23 3
35 24 2
35 25 5
35 26 2
35 27 4
35 28 6
35 29 3
35 30 1
35 31 4
35 32 3
35 33 1
35 34 3
36 0 3
36 1 2
36 2 2
36 3 2
36 4 6
36 5 5
36 6 4
36 7 2
36 8 4
36 9 4
36 10 5
36 11 2
36 12 4
36 13 3
36 14 4
36 15 2
36 16 2
36 17 5
36 18 2
36 19 1
36 20 4
36 21 1
36 22 2
36 23 4
36 24 6
36 25 2
36 26 1
36 27 5
36 28 1
36 29 1
36 30 1
36 31 1
36 32 4
36 33 6
36 34 4
36 35 3
37 0 5
37 1 2
37 2 2
37 3 2
37 4 4
37 5 2
37 6 1
37 7 6
37 8 1
37 9 3
37 10 3
37 11 3
37 12 4
37 13 4
37 14 4
37 15 1
37 16 2
37 17 5
37 18 2
37 19 6
37 20 3
37 21 6
37 22 1
37 23 1
37 24 1
37 25 4
37 26 3
37 27 6
37 28 3
37 29 2
37 30 2
37 31 4
37 32 2
37 33 5
37 34 5
37 35 5
37 36 4
38 0 2
38 1 6
38 2 2
38 3 6
38 4 6
38 5 5
38 6 1
38 7 5
38 8 5
38 9 2
38 10 6
38 11 2
38 12 3
38 13 2
38 14 5
38 15 1
38 16 2
38 17 5
38 18 4
38 19 5
38 20 3
38 21 6
38 22 5
38 23 2
38 24 3
38 25 1
38 26 4
38 27 5
38 28 2
38 29 4
38 30 6
38 31 4
38 32 1
38 33 3
38 34 5
38 35 4
38 36 6
38 37 4
39 0 1
39 1 4
39 2 1
39 3 5
39 4 6
39 5 5
39 6 3
39 7 2
39 8 4
39 9 6
39 10 4
39 11 6
39 12 4
39 13 6
39 14 6
39 15 3
39 16 1
39 17 4
39 18 3
39 19 4
39 20 3
39 21 5
39 22 3
39 23 3
39 24 3
39 25 4
39 26 4
39 27 3
39 28 5
39 29 3
39 30 5
39 31 6
39 32 1
39 33 6
39 34 4
39 35 6
39 36 4
39 37 6
39 38 2
40 0 3
40 1 4
40 2 3
40 3 2
40 4 3
40 5 1
40 6 1
40 7 1
40 8 1
40 9 3
40 10 6
40 11 4
40 12 3
40 13 5
40 14 5
40 15 6
40 16 5
40 17 5
40 18 1
40 19 1
40 20 1
40 21 5
40 22 3
40 23 5
40 24 4
40 25 5
40 26 3
40 27 2
40 28 2
40 29 5
40 30 2
40 31 3
40 32 1
40 33 1
40 34 5
40 35 4
40 36 5
40 37 4
40 38 4
40 39 6
41 0 2
41 1 3
41 2 4
41 3 4
41 4 2
41 5 5
41 6 5
41 7 2
41 8 6
41 9 6
41 10 2
41 11 6
41 12 2
41 13 3
41 14 6
41 15 6
41 16 1
41 17 1
41 18 5
41 19 2
41 20 5
41 21 3
41 22 4
41 23 6
41 24 6
41 25 5
41 26 6
41 27 1
41 28 1
41 29 3
41 30 6
41 31 3
41 32 2
41 33 1
41 34 2
41 35 3
41 36 4
41 37 5
41 38 2
41 39 4
41 40 3
42 0 2
42 1 1
42 2 2
42 3 4
42 4 6
42 5 5
42 6 4
42 7 4
42 8 1
42 9 4
42 10 5
42 11 2
42 12 4
42 13 1
42 14 2
42 15 6
42 16 6
42 17 1
42 18 2
42 19 5
42 20 1
42 21 4
42 22 2
42 23 3
42 24 6
42 25 6
42 26 3
42 27 3
42 28 3
42 29 2
42 30 6
42 31 5
42 32 1
42 33 4
42 34 1
42 35 3
42 36 2
42 37 3
42 38 2
42 39 6
42 40 5
42 41 5
43 0 1
43 1 2
43 2 2
43 3 1
43 4 5
43 5 1
43 6 4
43 7 6
43 8 1
43 9 2
43 10 1
43 11 5
43 12 6
43 13 5
43 14 4
43 15 2
43 16 4
43 17 6
43 18 6
43 19 6
43 20 3
43 21 3
43 22 4
43 23 6
43 24 5
43 25 2
43 26 3
43 27 2
43 28 2
43 29 2
43 30 1
43 31 5
43 32 6
43 33 4
43 34 2
43 35 5
43 36 3
43 37 1
43 38 2
43 39 3
43 40 4
43 41 1
43 42 6
44 0 2
44 1 6
44 2 1
44 3 2
44 4 5
44 5 5
44 6 3
44 7 5
44 8 4
44 9 6
44 10 3
44 11 3
44 12 3
44 13 6
44 14 6
44 15 5
44 16 3
44 17 4
44 18 6
44 19 3
44 20 3
44 21 5
44 22 1
44 23 6
44 24 6
44 25 2
44 26 4
44 27 2
44 28 4
44 29 3
44 30 4
44 31 1
44 32 4
44 33 4
44 34 2
44 35 1
44 36 4
44 37 4
44 38 6
44 39 1
44 40 6
44 41 4
44 42 1
44 43 5
45 0 3
45 1 6
45 2 4
45 3 5
45 4 2
45 5 3
45 6 3
45 7 4
45 8 6
45 9 6
45 10 5
45 11 6
45 12 4
45 13 3
45 14 5
45 15 3
45 16 4
45 17 3
45 18 6
45 19 2
45 20 6
45 21 2
45 22 1
45 23 4
45 24 4
45 25 3
45 26 5
45 27 3
45 28 1
45 29 5
45 30 5
45 31 1
45 32 6
45 33 2
45 34 4
45 35 2
45 36 6
45 37 4
45 38 3
45 39 3
45 40 3
45 41 2
45 42 5
45 43 6
45 44 5
46 0 5
46 1 5
46 2 1
46 3 1
46 4 4
46 5 2
46 6 2
46 7 6
46 8 6
46 9 2
46 10 5
46 11 6
46 12 5
46 13 5
46 14 4
46 15 1
46 16 5
46 17 4
46 18 3
46 19 2
46 20 3
46 21 6
46 22 1
46 23 1
46 24 6
46 25 6
46 26 2
46 27 5
46 28 4
46 29 1
46 30 2
46 31 3
46 32 3
46 33 2
46 34 6
46 35 6
46 36 4
46 37 5
46 38 2
46 39 3
46 40 6
46 41 5
46 42 2
46 43 1
46 44 3
46 45 3
47 0 3
47 1 5
47 2 2
47 3 1
47 4 1
47 5 3
47 6 6
47 7 5
47 8 3
47 9 2
47 10 3
47 11 4
47 12 3
47 13 6
47 14 5
47 15 3
47 16 4
47 17 1
47 18 4
47 19 4
47 20 1
47 21 5
47 22 4
47 23 6
47 24 3
47 25 3
47 26 4
47 27 6
47 28 2
47 29 1
47 30 6
47 31 6
47 32 1
47 33 4
47 34 5
47 35 3
47 36 1
47 37 3
47 38 5
47 39 4
47 40 1
47 41 5
47 42 2
47 43 2
47 44 5
47 45 3
47 46 2
48 0 3
48 1 6
48 2 2
48 3 5
48 4 3
48 5 2
48 6 6
48 7 1
48 8 2
48 9 3
48 10 4
48 11 3
48 12 1
48 13 2
48 14 1
48 15 5
48 16 2
48 17 4
48 18 5
48 19 5
48 20 2
48 21 2
48 22 2
48 23 5
48 24 2
48 25 6
48 26 4
48 27 4
48 28 3
48 29 1
48 30 3
48 31 6
48 32 1
48 33 3
48 34 6
48 35 5
48 36 6
48 37 6
48 38 2
48 39 5
48 40 4
48 41 1
48 42 1
48 43 1
48 44 6
48 45 1
48 46 6
48 47 5
49 0 2
49 1 6
49 2 5
49 3 2
49 4 3
49 5 3
49 6 5
49 7 6
49 8 1
49 9 3
49 10 5
49 11 3
49 12 3
49 13 5
49 14 5
49 15 5
49 16 2
49 17 4
49 18 3
49 19 1
49 20 3
49 21 3
49 22 4
49 23 3
49 24 2
49 25 5
49 26 3
49 27 6
49 28 5
49 29 4
49 30 3
49 31 5
49 32 4
49 33 6
49 34 2
49 35 2
49 36 6
49 37 2
49 38 6
49 39 5
49 40 4
49 41 4
49 42 4
49 43 3
49 44 6
49 45 5
49 46 6
49 47 4
49 48 6
50 0 4
50 1 4
50 2 1
50 3 4
50 4 3
50 5 4
50 6 6
50 7 5
50 8 5
50 9 5
50 10 1
50 11 2
50 12 5
50 13 1
50 14 6
50 15 1
50 16 6
50 17 2
50 18 6
50 19 2
50 20 2
50 21 5
50 22 1
50 23 1
50 24 3
50 25 6
50 26 1
50 27 5
50 28 3
50 29 6
50 30 1
50 31 4
50 32 4
50 33 6
50 34 6
50 35 2
50 36 2
50 37 2
50 38 4
50 39 2
50 40 3
50 41 2
50 42 5
50 43 4
50 44 4
50 45 1
50 46 3
50 47 1
50 48 1
50 49 1
51 0 4
51 1 5
51 2 2
51 3 6
51 4 5
51 5 3
51 6 1
51 7 3
51 8 3
51 9 3
51 10 4
51 11 4
51 12 6
51 13 1
51 14 6
51 15 4
51 16 6
51 17 5
51 18 4
51 19 6
51 20 4
51 21 4
51 22 5
51 23 5
51 24 4
51 25 5
51 26 3
51 27 2
51 28 2
51 29 6
51 30 1
51 31 3
51 32 1
51 33 3
51 34 4
51 35 3
51 36 4
51 37 5
51 38 2
51 39 3
51 40 1
51 41 1
51 42 2
51 43 1
51 44 2
51 45 3
51 46 2
51 47 1
51 48 2
51 49 1
51 50 2
52 0 4
52 1 5
52 2 5
52 3 6
52 4 3
52 5 2
52 6 3
52 7 3
52 8 5
52 9 6
52 10 3
52 11 6
52 12 3
52 13 2
52 14 4
52 15 5
52 16 5
52 17 5
52 18 1
52 19 5
52 20 6
52 21 5
52 22 4
52 23 3
52 24 1
52 25 4
52 26 3
52 27 6
52 28 1
52 29 1
52 30 1
52 31 2
52 32 2
52 33 3
52 34 1
52 35 2
52 36 2
52 37 1
52 38 6
52 39 2
52 40 2
52 41 5
52 42 6
52 43 1
52 44 6
52 45 1
52 46 1
52 47 6
52 48 2
52 49 6
52 50 6
52 51 4
53 0 1
53 1 1
53 2 3
53 3 4
53 4 5
53 5 4
53 6 1
53 7 1
53 8 2
53 9 6
53 10 3
53 11 6
53 12 6
53 13 2
53 14 3
53 15 4
53 16 3
53 17 4
53 18 4
53 19 1
53 20 3
53 21 4
53 22 2
53 23 2
53 24 2
53 25 2
53 26 4
53 27 4
53 28 4
53 29 5
53 30 4
53 31 2
53 32 5
53 33 1
53 34 6
53 35 1
53 36 1
53 37 3
53 38 2
53 39 1
53 40 4
53 41 4
53 42 3
53 43 2
53 44 5
53 45 3
53 46 2
53 47 1
53 48 6
53 49 6
53 50 3
53 51 1
53 52 4
54 0 3
54 1 4
54 2 2
54 3 6
54 4 6
54 5 6
54 6 2
54 7 4
54 8 5
54 9 1
54 10 4
54 11 6
54 12 5
54 13 2
54 14 4
54 15 5
54 16 4
54 17 5
54 18 5
54 19 4
54 20 6
54 21 5
54 22 4
54 23 1
54 24 5
54 25 3
54 26 2
54 27 1
54 28 3
54 29 6
54 30 3
54 31 5
54 32 6
54 33 2
54 34 6
54 35 4
54 36 6
54 37 6
54 38 3
54 39 2
54 40 4
54 41 3
54 42 6
54 43 5
54 44 4
54 45 3
54 46 3
54 47 5
54 48 4
54 49 4
54 50 2
54 51 4
54 52 2
54 53 4
55 0 5
55 1 4
55 2 3
55 3 4
55 4 2
55 5 3
55 6 6
55 7 2
55 8 5
55 9 1
55 10 1
55 11 4
55 12 1
55 13 1
55 14 6
55 15 4
55 16 1
55 17 1
55 18 6
55 19 4
55 20 2
55 21 4
55 22 1
55 23 6
55 24 2
55 25 5
55 26 2
55 27 6
55 28 4
55 29 3
55 30 4
55 31 2
55 32 2
55 33 4
55 34 3
55 35 1
55 36 1
55 37 4
55 38 2
55 39 5
55 40 2
55 41 5
55 42 2
55 43 4
55 44 4
55 45 1
55 46 4
55 47 1
55 48 6
55 49 4
55 50 4
55 51 2
55 52 1
55 53 4
55 54 5
56 0 6
56 1 6
56 2 6
56 3 4
56 4 2
56 5 2
56 6 4
56 7 2
56 8 1
56 9 4
56 10 6
56 11 2
56 12 2
56 13 4
56 14 4
56 15 2
56 16 1
56 17 4
56 18 4
56 19 1
56 20 3
56 21 5
56 22 4
56 23 5
56 24 1
56 25 2
56 26 4
56 27 4
56 28 1
56 29 5
56 30 6
56 31 5
56 32 6
56 33 4
56 34 2
56 35 6
56 36 2
56 37 4
56 38 3
56 39 1
56 40 3
56 41 3
56 42 6
56 43 3
56 44 1
56 45 3
56 46 3
56 47 5
56 48 3
56 49 5
56 50 6
56 51 1
56 52 5
56 53 6
56 54 2
56 55 3
57 0 1
57 1 3
57 2 6
57 3 5
57 4 6
57 5 1
57 6 4
57 7 6
57 8 5
57 9 3
57 10 2
57 11 1
57 12 1
57 13 4
57 14 2
57 15 5
57 16 4
57 17 6
57 18 6
57 19 6
57 20 5
57 21 2
57 22 5
57 23 2
57 24 5
57 25 2
57 26 3
57 27 2
57 28 3
57 29 5
57 30 1
57 31 4
57 32 4
57 33 1
57 34 6
57 35 1
57 36 3
57 37 3
57 38 2
57 39 4
57 40 2
57 41 4
57 42 4
57 43 2
57 44 3
57 45 3
57 46 1
57 47 6
57 48 3
57 49 5
57 50 1
57 51 1
57 52 2
57 53 2
57 54 4
57 55 3
57 56 1
58 0 5
58 1 3
58 2 1
58 3 5
58 4 4
58 5 2
58 6 5
58 7 2
58 8 5
58 9 3
58 10 5
58 11 2
58 12 2
58 13 3
58 14 4
58 15 1
58 16 1
58 17 3
58 18 3
58 19 5
58 20 3
58 21 1
58 22 3
58 23 6
58 24 5
58 25 1
58 26 5
58 27 4
58 28 1
58 29 5
58 30 3
58 31 5
58 32 5
58 33 3
58 34 2
58 35 6
58 36 1
58 37 2
58 38 5
58 39 4
58 40 3
58 41 5
58 42 6
58 43 5
58 44 5
58 45 4
58 46 2
58 47 1
58 48 1
58 49 3
58 50 6
58 51 3
58 52 3
58 53 5
58 54 4
58 55 3
58 56 6
58 57 4
59 0 4
59 1 4
59 2 5
59 3 6
59 4 4
59 5 3
59 6 6
59 7 5
59 8 6
59 9 6
59 10 2
59 11 1
59 12 4
59 13 3
59 14 1
59 15 4
59 16 1
59 17 4
59 18 3
59 19 2
59 20 1
59 21 4
59 22 5
59 23 4
59 24 6
59 25 2
59 26 5
59 27 1
59 28 4
59 29 4
59 30 3
59 31 2
59 32 4
59 33 5
59 34 6
59 35 3
59 36 4
59 37 4
59 38 1
59 39 2
59 40 1
59 41 1
59 42 2
59 43 1
59 44 2
59 45 4
59 46 3
59 47 4
59 48 3
59 49 2
59 50 6
59 51 1
59 52 5
59 53 6
59 54 5
59 55 5
59 56 3
59 57 3
59 58 6
60 0 1
60 1 1
60 2 5
60 3 6
60 4 1
60 5 3
60 6 6
60 7 3
60 8 3
60 9 4
60 10 6
60 11 4
60 12 5
60 13 1
60 14 2
60 15 4
60 16 6
60 17 5
60 18 2
60 19 1
60 20 5
60 21 6
60 22 2
60 23 1
60 24 6
60 25 6
60 26 4
60 27 3
60 28 3
60 29 2
60 30 2
60 31 2
60 32 4
60 33 5
60 34 6
60 35 5
60 36 5
60 37 6
60 38 3
60 39 1
60 40 1
60 41 4
60 42 1
60 43 3
60 44 4
60 45 2
60 46 6
60 47 3
60 48 3
60 49 6
60 50 3
60 51 5
60 52 2
60 53 6
60 54 2
60 55 5
60 56 3
60 57 4
60 58 3
60 59 1
61 0 4
61 1 6
61 2 3
61 3 5
61 4 5
61 5 6
61 6 3
61 7 2
61 8 5
61 9 3
61 10 3
61 11 1
61 12 5
61 13 5
61 14 1
61 15 4
61 16 2
61 17 4
61 18 3
61 19 1
61 20 2
61 21 6
61 22 6
61 23 1
61 24 5
61 25 1
61 26 4
61 27 6
61 28 1
61 29 3
61 30 4
61 31 3
61 32 5
61 33 5
61 34 3
61 35 1
61 36 4
61 37 6
61 38 5
61 39 1
61 40 3
61 41 3
61 42 1
61 43 4
61 44 5
61 45 2
61 46 6
61 47 2
61 48 6
61 49 6
61 50 4
61 51 6
61 52 4
61 53 5
61 54 1
61 55 6
61 56 1
61 57 1
61 58 3
61 59 6
61 60 5
62 0 6
62 1 2
62 2 1
62 3 4
62 4 5
62 5 6
62 6 3
62 7 3
62 8 2
62 9 5
62 10 1
62 11 6
62 12 2
62 13 4
62 14 2
62 15 2
62 16 2
62 17 4
62 18 3
62 19 6
62 20 2
62 21 3
62 22 4
62 23 5
62 24 6
62 25 4
62 26 4
62 27 1
62 28 1
62 29 4
62 30 6
62 31 3
62 32 1
62 33 6
62 34 5
62 35 1
62 36 3
62 37 3
62 38 4
62 39 6
62 40 6
62 41 3
62 42 5
62 43 2
62 44 3
62 45 3
62 46 6
62 47 1
62 48 5
62 49 6
62 50 6
62 51 6
62 52 1
62 53 4
62 54 4
62 55 5
62 56 4
62 57 5
62 58 6
62 59 4
62 60 2
62 61 4
63 0 2
63 1 4
63 2 2
63 3 4
63 4 5
63 5 2
63 6 5
63 7 2
63 8 3
63 9 6
63 10 6
63 11 4
63 12 6
63 13 5
63 14 3
63 15 2
63 16 2
63 17 3
63 18 5
63 19 3
63 20 3
63 21 4
63 22 5
63 23 6
63 24 2
63 25 3
63 26 1
63 27 4
63 28 2
63 29 4
63 30 2
63 31 1
63 32 6
63 33 5
63 34 3
63 35 1
63 36 5
63 37 2
63 38 3
63 39 2
63 40 3
63 41 4
63 42 6
63 43 1
63 44 6
63 45 3
63 46 3
63 47 3
63 48 1
63 49 4
63 50 1
63 51 2
63 52 2
63 53 2
63 54 6
63 55 1
63 56 6
63 57 1
63 58 5
63 59 1
63 60 2
63 61 2
63 62 6
64 0 3
64 1 3
64 2 6
64 3 3
64 4 4
64 5 5
64 6 3
64 7 4
64 8 2
64 9 5
64 10 6
64 11 4
64 12 1
64 13 1
64 14 6
64 15 3
64 16 1
64 17 6
64 18 2
64 19 1
64 20 2
64 21 2
64 22 6
64 23 2
64 24 2
64 25 6
64 26 5
64 27 1
64 28 5
64 29 1
64 30 2
64 31 2
64 32 1
64 33 1
64 34 2
64 35 5
64 36 1
64 37 1
64 38 3
64 39 3
64 40 6
64 41 2
64 42 2
64 43 5
64 44 4
64 45 6
64 46 6
64 47 5
64 48 3
64 49 2
64 50 1
64 51 3
64 52 4
64 53 6
64 54 4
64 55 2
64 56 4
64 57 6
64 58 3
64 59 6
64 60 4
64 61 3
64 62 4
64 63 5
65 0 4
65 1 4
65 2 6
65 3 3
65 4 2
65 5 2
65 6 2
65 7 6
65 8 3
65 9 1
65 10 2
65 11 2
65 12 6
65 13 1
65 14 4
65 15 5
65 16 6
65 17 6
65 18 6
65 19 3
65 20 1
65 21 6
65 22 3
65 23 5
65 24 2
65 25 5
65 26 1
65 27 1
65 28 6
65 29 5
65 30 3
65 31 5
65 32 1
65 33 4
65 34 6
65 35 3
65 36 1
65 37 6
65 38 2
65 39 6
65 40 6
65 41 1
65 42 2
65 43 1
65 44 5
65 45 1
65 46 6
65 47 5
65 48 6
65 49 6
65 50 4
65 51 6
65 52 4
65 53 2
65 54 2
65 55 4
65 56 4
65 57 6
65 58 3
65 59 3
65 60 6
65 61 3
65 62 4
65 63 3
65 64 1
66 0 5
66 1 5
66 2 1
66 3 1
66 4 4
66 5 2
66 6 1
66 7 6
66 8 2
66 9 1
66 10 4
66 11 3
66 12 2
66 13 1
66 14 5
66 15 5
66 16 4
66 17 2
66 18 6
66 19 6
66 20 1
66 21 1
66 22 4
66 23 1
66 24 4
66 25 5
66 26 2
66 27 2
66 28 5
66 29 5
66 30 1
66 31 3
66 32 3
66 33 4
66 34 1
66 35 6
66 36 5
66 37 5
66 38 4
66 39 3
66 40 3
66 41 2
66 42 1
66 43 2
66 44 5
66 45 4
66 46 4
66 47 5
66 48 1
66 49 2
66 50 3
66 51 5
66 52 1
66 53 6
66 54 6
66 55 3
66 56 3
66 57 4
66 58 3
66 59 3
66 60 1
66 61 6
66 62 6
66 63 3
66 64 1
66 65 2
67 0 1
67 1 1
67 2 4
67 3 5
67 4 2
67 5 5
67 6 1
67 7 1
67 8 6
67 9 2
67 10 2
67 11 2
67 12 5
67 13 6
67 14 1
67 15 6
67 16 4
67 17 1
67 18 1
67 19 4
67 20 4
67 21 2
67 22 5
67 23 4
67 24 5
67 25 5
67 26 6
67 27 6
67 28 2
67 29 4
67 30 3
67 31 1
67 32 1
67 33 1
67 34 3
67 35 2
67 36 2
67 37 1
67 38 3
67 39 5
67 40 3
67 41 2
67 42 2
67 43 1
67 44 3
67 45 5
67 46 1
67 47 2
67 48 4
67 49 6
67 50 6
67 51 2
67 52 6
67 53 4
67 54 2
67 55 2
67 56 6
67 57 3
67 58 2
67 59 4
67 60 4
67 61 4
67 62 6
67 63 3
67 64 2
67 65 3
67 66 4
68 0 5
68 1 4
68 2 3
68 3 4
68 4 3
68 5 3
68 6 3
68 7 4
68 8 3
68 9 1
68 10 6
68 11 4
68 12 2
68 13 5
68 14 3
68 15 1
68 16 3
68 17 1
68 18 4
68 19 3
68 20 4
68 21 2
68 22 3
68 23 4
68 24 2
68 25 6
68 26 6
68 27 3
68 28 1
68 29 6
68 30 3
68 31 4
68 32 4
68 33 3
68 34 3
68 35 5
68 36 5
68 37 5
68 38 5
68 39 2
68 40 4
68 41 4
68 42 5
68 43 5
68 44 4
68 45 4
68 46 2
68 47 1
68 48 5
68 49 5
68 50 2
68 51 5
68 52 3
68 53 2
68 54 6
68 55 2
68 56 5
68 57 5
68 58 3
68 59 4
68 60 1
68 61 3
68 62 4
68 63 3
68 64 2
68 65 4
68 66 5
68 67 5
69 0 1
69 1 4
69 2 4
69 3 6
69 4 6
69 5 6
69 6 5
69 7 6
69 8 2
69 9 6
69 10 3
69 11 5
69 12 3
69 13 4
69 14 2
69 15 3
69 16 2
69 17 6
69 18 2
69 19 2
69 20 2
69 21 3
69 22 1
69 23 4
69 24 3
69 25 1
69 26 5
69 27 4
69 28 2
69 29 5
69 30 2
69 31 5
69 32 3
69 33 6
69 34 1
69 35 1
69 36 3
69 37 6
69 38 6
69 39 4
69 40 2
69 41 6
69 42 2
69 43 3
69 44 5
69 45 1
69 46 5
69 47 2
69 48 6
69 49 1
69 50 1
69 51 4
69 52 4
69 53 1
69 54 4
69 55 4
69 56 6
69 57 4
69 58 4
69 59 6
69 60 5
69 61 2
69 62 4
69 63 5
69 64 1
69 65 5
69 66 4
69 67 5
69 68 4
